
Gurobi 7.5.1 (mac64, Python) logging started Sat Jan 27 18:08:01 2018

Academic license - for non-commercial use only

Gurobi 7.5.1 (mac64, Python) logging started Sun Jan 28 11:53:01 2018

Academic license - for non-commercial use only
